0
Node Left Objective IInf Best_Integer Best_Bound ItCnt Gap
0 0 0.0000 4 0.0000 11
0 2 0.0000 3 0.0000 20 0 0
CPXPARAM_MIP_Cuts_ZeroHalfCut 0
1
Node Left Objective IInf Best_Integer Best_Bound ItCnt Gap
0 0 0.0000 11 0.0000 14
0 2 0.0000 11 0.0000 14 0 0
CPXPARAM_MIP_Cuts_ZeroHalfCut 0
2
Node Left Objective IInf Best_Integer Best_Bound ItCnt Gap
0 0 -0.0000 17 -0.0000 12
0 2 0.0000 16 0.0000 57 0 0
CPXPARAM_MIP_Cuts_ZeroHalfCut 0
3
Node Left Objective IInf Best_Integer Best_Bound ItCnt Gap
0 0 0.0000 11 0.0000 14
0 2 0.0000 11 0.0000 14 0 0
CPXPARAM_MIP_Cuts_ZeroHalfCut 0
4
Node Left Objective IInf Best_Integer Best_Bound ItCnt Gap
0 0 -0.0000 3 -0.0000 12
0 2 -0.0000 3 -0.0000 12 0 0
CPXPARAM_MIP_Cuts_ZeroHalfCut 0
5
Node Left Objective IInf Best_Integer Best_Bound ItCnt Gap
0 0 0.0000 14 0.0000 13
0 2 0.0000 14 0.0000 13 0 0
CPXPARAM_MIP_Cuts_ZeroHalfCut 0
6
Node Left Objective IInf Best_Integer Best_Bound ItCnt Gap
0 0 -0.0000 5 -0.0000 13
0 2 -0.0000 5 -0.0000 13 0 0
CPXPARAM_MIP_Cuts_ZeroHalfCut 0
7
Node Left Objective IInf Best_Integer Best_Bound ItCnt Gap
0 0 -0.0000 16 -0.0000 13
0 2 -0.0000 16 -0.0000 13 0 0
CPXPARAM_MIP_Cuts_ZeroHalfCut 0
8
Node Left Objective IInf Best_Integer Best_Bound ItCnt Gap
0 0 -0.0000 3 -0.0000 12
0 2 -0.0000 3 -0.0000 12 0 0
CPXPARAM_MIP_Cuts_ZeroHalfCut 0
9
Node Left Objective IInf Best_Integer Best_Bound ItCnt Gap
0 0 0.0000 12 0.0000 13
0 2 0.0000 12 0.0000 13 0 0
CPXPARAM_MIP_Cuts_ZeroHalfCut 0
10
Node Left Objective IInf Best_Integer Best_Bound ItCnt Gap
0 0 -0.0000 6 -0.0000 12
0 2 -0.0000 5 -0.0000 14 0 0
CPXPARAM_MIP_Cuts_ZeroHalfCut 0
11
Node Left Objective IInf Best_Integer Best_Bound ItCnt Gap
0 0 0.0000 18 0.0000 13
0 2 0.0000 17 0.0000 54 0 0
CPXPARAM_MIP_Cuts_ZeroHalfCut 0
12
Node Left Objective IInf Best_Integer Best_Bound ItCnt Gap
0 0 -0.0000 4 -0.0000 12
0 2 -0.0000 3 -0.0000 22 0 0
CPXPARAM_MIP_Cuts_ZeroHalfCut 0
13
Node Left Objective IInf Best_Integer Best_Bound ItCnt Gap
0 0 -0.0000 10 -0.0000 14
0 2 0.0000 10 0.0000 14 0 0
CPXPARAM_MIP_Cuts_ZeroHalfCut 0
14
Node Left Objective IInf Best_Integer Best_Bound ItCnt Gap
0 0 -0.0000 6 -0.0000 13
0 2 -0.0000 5 -0.0000 19 0 0
CPXPARAM_MIP_Cuts_ZeroHalfCut 0
15
Node Left Objective IInf Best_Integer Best_Bound ItCnt Gap
0 0 -0.0000 17 -0.0000 14
0 2 -0.0000 17 -0.0000 14 0 0
CPXPARAM_MIP_Cuts_ZeroHalfCut 0
16
Node Left Objective IInf Best_Integer Best_Bound ItCnt Gap
0 0 0.0000 3 0.0000 12
0 2 0.0000 3 0.0000 12 0 0
CPXPARAM_MIP_Cuts_ZeroHalfCut 0
17
Node Left Objective IInf Best_Integer Best_Bound ItCnt Gap
0 0 0.0000 10 0.0000 14
0 2 0.0000 10 0.0000 14 0 0
CPXPARAM_MIP_Cuts_ZeroHalfCut 0
18
Node Left Objective IInf Best_Integer Best_Bound ItCnt Gap
0 0 0.0000 5 0.0000 13
0 2 0.0000 5 0.0000 13 0 0
CPXPARAM_MIP_Cuts_ZeroHalfCut 0
19
Node Left Objective IInf Best_Integer Best_Bound ItCnt Gap
0 0 -0.0000 16 -0.0000 14
0 2 -0.0000 16 -0.0000 14 0 0
CPXPARAM_MIP_Cuts_ZeroHalfCut 0
20
Node Left Objective IInf Best_Integer Best_Bound ItCnt Gap
0 0 0.0000 4 0.0000 14
0 2 0.0000 4 0.0000 14 0 0
CPXPARAM_MIP_Cuts_ZeroHalfCut 0
21
Node Left Objective IInf Best_Integer Best_Bound ItCnt Gap
0 0 0.0000 10 0.0000 14
0 2 0.0000 10 0.0000 14 0 0
CPXPARAM_MIP_Cuts_ZeroHalfCut 0
22
Node Left Objective IInf Best_Integer Best_Bound ItCnt Gap
0 0 -0.0000 4 -0.0000 15
0 2 -0.0000 4 -0.0000 15 0 0
CPXPARAM_MIP_Cuts_ZeroHalfCut 0
23
Node Left Objective IInf Best_Integer Best_Bound ItCnt Gap
0 0 0.0000 11 0.0000 16
0 2 0.0000 11 0.0000 16 0 0
CPXPARAM_MIP_Cuts_ZeroHalfCut 0
24
Node Left Objective IInf Best_Integer Best_Bound ItCnt Gap
0 0 0.0000 3 0.0000 13
0 2 0.0000 3 0.0000 13 0 0
CPXPARAM_MIP_Cuts_ZeroHalfCut 0
25
Node Left Objective IInf Best_Integer Best_Bound ItCnt Gap
0 0 0.0000 13 0.0000 14
0 2 0.0000 13 0.0000 14 0 0
CPXPARAM_MIP_Cuts_ZeroHalfCut 0
26
Node Left Objective IInf Best_Integer Best_Bound ItCnt Gap
0 0 0.0000 5 0.0000 14
0 2 0.0000 5 0.0000 14 0 0
CPXPARAM_MIP_Cuts_ZeroHalfCut 0
27
Node Left Objective IInf Best_Integer Best_Bound ItCnt Gap
0 0 0.0000 17 0.0000 15
0 2 0.0000 17 0.0000 15 0 0
CPXPARAM_MIP_Cuts_ZeroHalfCut 0
28
Node Left Objective IInf Best_Integer Best_Bound ItCnt Gap
0 0 0.0000 3 0.0000 12
0 2 0.0000 3 0.0000 12 0 0
CPXPARAM_MIP_Cuts_ZeroHalfCut 0
29
Node Left Objective IInf Best_Integer Best_Bound ItCnt Gap
0 0 0.0000 11 0.0000 12
0 2 0.0000 11 0.0000 12 0 0
CPXPARAM_MIP_Cuts_ZeroHalfCut 0
30
Node Left Objective IInf Best_Integer Best_Bound ItCnt Gap
0 0 -0.0000 3 -0.0000 13
0 2 -0.0000 3 -0.0000 13 0 0
CPXPARAM_MIP_Cuts_ZeroHalfCut 0
31
Node Left Objective IInf Best_Integer Best_Bound ItCnt Gap
0 0 0.0000 10 0.0000 13
0 2 -0.0000 10 0.0000 13 0 0
CPXPARAM_MIP_Cuts_ZeroHalfCut 0
32
Node Left Objective IInf Best_Integer Best_Bound ItCnt Gap
0 0 -0.0000 3 -0.0000 12
0 2 -0.0000 3 -0.0000 12 0 0
CPXPARAM_MIP_Cuts_ZeroHalfCut 0
33
Node Left Objective IInf Best_Integer Best_Bound ItCnt Gap
0 0 -0.0000 10 -0.0000 14
0 2 -0.0000 10 -0.0000 14 0 0
CPXPARAM_MIP_Cuts_ZeroHalfCut 0
34
Node Left Objective IInf Best_Integer Best_Bound ItCnt Gap
0 0 0.0000 5 0.0000 14
0 2 0.0000 5 0.0000 14 0 0
CPXPARAM_MIP_Cuts_ZeroHalfCut 0
35
Node Left Objective IInf Best_Integer Best_Bound ItCnt Gap
0 0 -0.0000 17 -0.0000 15
0 2 -0.0000 17 -0.0000 15 0 0
CPXPARAM_MIP_Cuts_ZeroHalfCut 0
36
Node Left Objective IInf Best_Integer Best_Bound ItCnt Gap
0 0 -0.0000 3 -0.0000 11
0 2 -0.0000 3 -0.0000 11 0 0
CPXPARAM_MIP_Cuts_ZeroHalfCut 0
37
Node Left Objective IInf Best_Integer Best_Bound ItCnt Gap
0 0 0.0000 10 0.0000 13
0 2 0.0000 10 0.0000 13 0 0
CPXPARAM_MIP_Cuts_ZeroHalfCut 0
38
Node Left Objective IInf Best_Integer Best_Bound ItCnt Gap
0 0 -0.0000 3 -0.0000 13
0 2 -0.0000 3 -0.0000 13 0 0
CPXPARAM_MIP_Cuts_ZeroHalfCut 0
39
Node Left Objective IInf Best_Integer Best_Bound ItCnt Gap
0 0 0.0000 10 0.0000 13
0 2 0.0000 10 0.0000 13 0 0
CPXPARAM_MIP_Cuts_ZeroHalfCut 0
